32693.56,39.95,44.0
40775.92,32.03,35.28
35544.35,36.75,40.47
37341.09,34.98,38.52
37701.9,34.65,38.15
37155.39,35.16,38.72
35490.75,36.8,40.53
36885.41,35.41,39.0
31390.99,41.61,45.82
35211.16,37.1,40.85
34603.45,37.75,41.57
36241.01,36.04,39.69
39792.44,32.83,36.15
34592.17,37.76,41.58
34820.79,37.51,41.31
35679.83,36.61,40.32
33491.77,39.0,42.95
36826.43,35.47,39.06
33743.41,38.71,42.63
34998.67,37.32,41.1
